Route #1: 27 49 24 6 50 62 30 7
Route #2: 19 11 45 13 51 34 22 56
Route #3: 54 53 17 55 23 18
Route #4: 52 20 35 57 31 43 41
Route #5: 28 16 2 36 21 33
Route #6: 38 61 64 63 46 26 10
Route #7: 32 58 40 8 65 5
Route #8: 42 3 60 4 15 29 39 14 9 12
Route #9: 1 47 44 25 48 37 59
cost 1464.29541015625